certificates/rado_a3_c2_N8.cnf
c Rad2 upper bound instance: x1 + 3*x2 - x3 = 2, interval [1,8]
p cnf 8 24
1 2 0
-1 -2 0
1 2 5 0
-1 -2 -5 0
1 3 8 0
-1 -3 -8 0
1 2 3 0
-1 -2 -3 0
2 6 0
-2 -6 0
1 3 4 0
-1 -3 -4 0
2 3 7 0
-2 -3 -7 0
1 4 5 0
-1 -4 -5 0
2 4 8 0
-2 -4 -8 0
1 5 6 0
-1 -5 -6 0
1 6 7 0
-1 -6 -7 0
1 7 8 0
-1 -7 -8 0
