certificates/rado_a3_c2_N8.drat
-7 -8 0
d -7 -1 -8 0
3 4 7 0
1 7 0
-8 0
7 0
2 0
-1 0
-6 0
-3 0
0
